NAME : rbg193.2.tw.21401.tour
COMMENT : Length = 21401
COMMENT : Found by LKH [Keld Helsgaun] Tue Nov  7 19:33:26 2017
TYPE : TOUR
DIMENSION : 192
TOUR_SECTION
1
6
5
9
4
10
7
8
3
2
16
11
13
18
14
12
20
19
15
17
24
23
21
22
30
27
26
36
33
37
46
25
29
34
31
32
28
41
45
35
44
47
39
40
42
38
43
51
54
59
52
57
49
48
63
61
62
55
50
53
56
64
60
58
67
70
74
65
66
69
68
71
79
82
72
75
73
81
76
77
87
85
86
80
78
83
84
89
88
91
94
93
98
92
99
96
90
100
95
103
97
104
118
101
102
113
106
107
114
115
112
121
110
124
119
105
108
111
109
116
125
117
122
120
129
131
126
123
128
142
130
137
127
139
133
140
135
134
132
136
138
146
143
141
144
149
147
145
153
154
155
156
152
151
157
148
150
159
158
160
165
163
164
168
182
169
170
171
167
162
188
161
166
180
179
177
174
173
176
175
186
172
178
189
190
185
183
191
184
181
187
192
-1
EOF
